NAME: Bidireccional.tsp
TYPE: TSP
DIMENSION: 11
SOLUTION: 1453
TOUR_SECTION
8,4,11,1,6,9,10,2,5,7,3,8
153 - 8,4
42 - 4,11
53 - 11,1
85 - 1,6
41 - 6,9
91 - 9,10
253 - 10,2
60 - 2,5
113 - 5,7
236 - 7,3
326 - 3,8
EOF